Version identifier: 12.10.0.0 | 2019-11-26 | 843d4de
CPXPARAM_WorkMem                                 28672
Tried aggregator 2 times.
Aggregator did 45 substitutions.
Reduced MIP has 153 rows, 180 columns, and 705 nonzeros.
Reduced MIP has 180 binaries, 0 generals, 0 SOSs, and 0 indicators.
Presolve time = 0,00 sec. (0,68 ticks)
Found incumbent of value 135,000000 after 0,00 sec. (1,10 ticks)
Probing time = 0,00 sec. (0,25 ticks)
Tried aggregator 1 time.
Detecting symmetries...
MIP Presolve eliminated 30 rows and 0 columns.
MIP Presolve added 60 rows and 0 columns.
Reduced MIP has 183 rows, 180 columns, and 735 nonzeros.
Reduced MIP has 180 binaries, 0 generals, 0 SOSs, and 0 indicators.
Presolve time = 0,00 sec. (0,90 ticks)
Probing time = 0,00 sec. (0,24 ticks)
Clique table members: 495.
MIP emphasis: balance optimality and feasibility.
MIP search method: dynamic search.
Parallel mode: deterministic, using up to 16 threads.
Root relaxation solution time = 0,00 sec. (0,67 ticks)

        Nodes                                         Cuts/
   Node  Left     Objective  IInf  Best Integer    Best Bound    ItCnt     Gap

*     0+    0                          135,0000        0,0000           100,00%
*     0+    0                          105,0000        0,0000           100,00%
*     0+    0                          103,0000        0,0000           100,00%
*     0+    0                          101,0000        0,0000           100,00%
      0     0       45,0000   153      101,0000       45,0000       77   55,45%
      0     0       45,7710   153      101,0000     Cuts: 145      157   54,68%
      0     0       46,9872   153      101,0000     Cuts: 148      202   53,48%
      0     0       47,2690   153      101,0000     Cuts: 145      225   53,20%
      0     0       47,4966   153      101,0000      Cuts: 78      258   52,97%
      0     0       47,7438   153      101,0000      Cuts: 25      296   52,73%
      0     0       53,3631   153      101,0000     Cuts: 146      439   47,17%
      0     0       53,7353   153      101,0000     Cuts: 145      490   46,80%
      0     0       54,1518   153      101,0000     Cuts: 126      543   46,38%
      0     0       54,3616   153      101,0000      Cuts: 15      578   46,18%
      0     0       54,6847   153      101,0000      Cuts: 61      618   45,86%
      0     0       54,8349   153      101,0000      Cuts: 84      670   45,71%
*     0+    0                           99,0000       54,8349            44,61%
      0     0       54,9821   153       99,0000      Cuts: 44      722   44,46%
      0     0       55,1313   153       99,0000   ZeroHalf: 7      755   44,31%
      0     0       55,1970   153       99,0000      Cuts: 17      787   44,25%
      0     0       55,2759   153       99,0000      Cuts: 75      841   44,17%
*     0+    0                           91,0000       55,2759            39,26%
      0     0       55,4028   153       91,0000      Cuts: 47      891   34,25%
      0     0       55,4550   153       91,0000      Cuts: 56      924   34,25%
      0     2       55,4550   167       91,0000       62,7000      924   31,10%
Elapsed time = 0,25 sec. (144,04 ticks, tree = 0,02 MB, solutions = 6)

Clique cuts applied:  96
Cover cuts applied:  173
Mixed integer rounding cuts applied:  21
Zero-half cuts applied:  24
Lift and project cuts applied:  1
Gomory fractional cuts applied:  9

Root node processing (before b&c):
  Real time             =    0,25 sec. (143,74 ticks)
Parallel b&c, 16 threads:
  Real time             =    0,24 sec. (129,50 ticks)
  Sync time (average)   =    0,10 sec.
  Wait time (average)   =    0,00 sec.
                          ------------
Total (root+branch&cut) =    0,49 sec. (273,24 ticks)
